
Gurobi 8.1.1 (win64) logging started 11/25/19 13:39:57

Changed value of parameter LogFile to logs/full/qp/full-05-30-1.log
   Prev: gurobi.log  Default: 
Changed value of parameter LogToConsole to 0
   Prev: 1  Min: 0  Max: 1  Default: 1
Changed value of parameter TimeLimit to 3600.0
   Prev: 1e+100  Min: 0.0  Max: 1e+100  Default: 1e+100
Optimize a model with 1 rows, 329 columns and 1 nonzeros
Model has 9 quadratic constraints
Variable types: 0 continuous, 329 integer (329 binary)
Coefficient statistics:
  Matrix range     [1e+00, 1e+00]
  QMatrix range    [1e+00, 1e+00]
  Objective range  [1e+00, 1e+00]
  Bounds range     [1e+00, 1e+00]
  RHS range        [1e+00, 1e+00]
  QRHS range       [1e+00, 2e+00]
Found heuristic solution: objective 329.0000000
Presolve removed 1 rows and 1 columns
Presolve time: 0.00s
Presolved: 0 rows, 328 columns, 0 nonzeros
Variable types: 0 continuous, 328 integer (328 binary)

Root relaxation: objective 1.000000e+00, 0 iterations, 0.00 seconds

    Nodes    |    Current Node    |     Objective Bounds      |     Work
 Expl Unexpl |  Obj  Depth IntInf | Incumbent    BestBd   Gap | It/Node Time

     0     0    2.50000    0    1  329.00000    2.50000  99.2%     -    0s
H    0     0                       5.0000000    2.50000  50.0%     -    0s
     0     0    3.00000    0    4    5.00000    3.00000  40.0%     -    0s
     0     0    3.00000    0    4    5.00000    3.00000  40.0%     -    0s
     0     2    3.00000    0    4    5.00000    3.00000  40.0%     -    0s
   598   243    4.00000  166    -    5.00000    3.00000  40.0%   1.2    5s
   987   417     cutoff   75         5.00000    3.00000  40.0%   1.2   10s
  1091   514    4.00000  182    4    5.00000    3.00000  40.0%   1.2   15s
  1093   515    3.08838    8 2706    5.00000    3.08838  38.2%   1.2   33s
  1095   518    3.33333   86    4    5.00000    3.08838  38.2%  16.0   50s
  1098   520    3.55951   23 1206    5.00000    3.55951  28.8%  16.0   56s

Explored 1106 nodes (45096 simplex iterations) in 59.57 seconds
Thread count was 4 (of 4 available processors)

Solution count 2: 5 329 

Optimal solution found (tolerance 1.00e-04)
Best objective 5.000000000000e+00, best bound 5.000000000000e+00, gap 0.0000%
Warning: Q constraint 0 doesn't have a name
